JulietBench/Juliet_Based_Patch_Bench/FFmpeg/CWE-189-Numeric-Errors/CVE_2013_0859_6d1c5ea04af3e345232aa70c944de961061dab2d/Resultadd_doubles_metadata_Snippet_patch1EQ.smt2
; benchmark generated from python API
(set-info :status unknown)
(declare-fun R () (_ BitVec 32))
(declare-fun rdi () (_ BitVec 64))
(assert
 (let (($x183 (= (_ bv3199971767 32) R)))
 (let ((?x6 ((_ extract 31 0) rdi)))
 (let (($x136 (bvugt ?x6 (_ bv268435454 32))))
 (let (($x185 (and $x136 $x183)))
 (let (($x30 (bvule ?x6 (_ bv268435454 32))))
 (let (($x163 (bvsge (_ bv0 32) ?x6)))
 (let (($x186 (and $x163 $x30 $x183)))
 (let ((?x161 ((_ extract 28 0) rdi)))
 (let ((?x178 (concat ?x161 (_ bv0 3))))
 (let (($x176 (= R ?x178)))
 (let (($x166 (bvslt (_ bv0 32) ?x6)))
 (let (($x180 (and $x166 $x30 $x176)))
 (let (($x187 (or $x180 $x186 $x185)))
 (let (($x181 (and $x30 $x176)))
 (let (($x173 (or $x185 $x181)))
 (and $x173 $x187)))))))))))))))))
(check-sat)
